tsp_instances/TSP50/instance36.tsp
NODE_COORD_SECTION
0 78 136
1 84 8
2 18 23
3 6 172
4 82 103
5 180 171
6 5 160
7 31 196
8 129 30
9 169 20
10 13 126
11 106 21
12 126 136
13 29 170
14 66 153
15 154 83
16 97 82
17 103 181
18 41 113
19 28 92
20 200 189
21 197 68
22 107 160
23 24 43
24 132 65
25 52 103
26 183 91
27 104 15
28 129 194
29 133 188
30 121 15
31 200 189
32 120 158
33 92 83
34 159 90
35 66 72
36 3 53
37 23 162
38 197 189
39 68 23
40 154 48
41 136 15
42 136 194
43 91 33
44 76 59
45 21 42
46 72 15
47 131 49
48 20 110
49 178 200
