tsp_instances/TSP50/instance36.opt.tour
TOUR_SECTION
1
13
33
23
18
29
30
43
50
39
21
32
6
27
22
35
16
25
48
41
10
42
9
31
28
12
44
2
47
40
3
37
46
24
36
45
17
34
5
26
19
20
49
11
7
4
38
14
8
15
-1